data/OOEBPP/R1000/BPP_1000_120_0.2_0.7_7.txt.ins
1000
120 120
1 84 178
2 84 131
3 84 983
4 84 551
5 84 395
6 84 395
7 84 443
8 84 229
9 84 89
10 84 598
11 84 681
12 84 793
13 84 22
14 84 841
15 84 284
16 84 815
17 84 259
18 84 586
19 84 958
20 83 683
21 83 292
22 83 833
23 83 438
24 83 515
25 83 66
26 83 172
27 83 588
28 83 965
29 83 610
30 83 353
31 83 221
32 83 216
33 83 853
34 83 693
35 83 733
36 82 370
37 82 317
38 82 626
39 82 568
40 82 779
41 82 948
42 82 865
43 82 945
44 82 693
45 82 837
46 82 382
47 82 520
48 82 243
49 82 713
50 82 975
51 82 530
52 82 87
53 82 348
54 81 915
55 81 545
56 81 297
57 81 312
58 81 273
59 81 613
60 81 836
61 81 898
62 81 541
63 81 459
64 81 272
65 81 604
66 81 645
67 81 803
68 81 265
69 81 540
70 80 70
71 80 644
72 80 865
73 80 880
74 80 936
75 80 925
76 80 593
77 80 345
78 80 668
79 80 288
80 80 6
81 80 340
82 80 670
83 80 88
84 80 638
85 80 239
86 80 868
87 80 548
88 79 155
89 79 487
90 79 995
91 79 704
92 79 528
93 79 904
94 79 713
95 79 715
96 79 589
97 79 813
98 79 222
99 79 943
100 79 286
101 79 754
102 79 332
103 79 424
104 79 436
105 79 779
106 79 245
107 79 605
108 79 842
109 79 729
110 79 684
111 79 934
112 79 705
113 79 991
114 79 471
115 78 426
116 78 937
117 78 757
118 78 843
119 78 235
120 78 88
121 78 297
122 78 747
123 78 25
124 78 826
125 78 526
126 78 198
127 78 639
128 78 592
129 78 399
130 78 204
131 78 50
132 78 11
133 78 3
134 78 991
135 78 975
136 78 815
137 78 762
138 77 375
139 77 824
140 77 230
141 77 721
142 77 863
143 77 880
144 77 362
145 77 212
146 77 766
147 77 992
148 77 240
149 77 258
150 77 248
151 77 865
152 77 54
153 77 676
154 77 997
155 77 309
156 77 805
157 77 805
158 77 618
159 77 789
160 77 264
161 77 285
162 77 185
163 77 654
164 77 357
165 77 348
166 77 460
167 77 928
168 77 933
169 76 869
170 76 227
171 76 72
172 76 658
173 76 757
174 76 694
175 76 449
176 76 337
177 76 349
178 76 578
179 76 543
180 76 5
181 76 372
182 76 795
183 76 336
184 76 820
185 76 268
186 76 444
187 76 612
188 76 451
189 76 244
190 76 919
191 76 899
192 76 159
193 76 996
194 76 316
195 76 352
196 76 507
197 76 511
198 75 339
199 75 327
200 75 565
201 75 820
202 75 253
203 75 159
204 75 101
205 75 934
206 75 18
207 75 737
208 74 784
209 74 802
210 74 857
211 74 397
212 74 252
213 74 405
214 74 107
215 74 835
216 74 548
217 74 797
218 74 85
219 74 495
220 74 380
221 74 889
222 74 496
223 74 306
224 73 776
225 73 885
226 73 686
227 73 221
228 73 145
229 73 920
230 73 75
231 73 518
232 73 806
233 73 68
234 73 531
235 73 683
236 73 549
237 73 802
238 73 694
239 73 942
240 73 128
241 73 764
242 73 392
243 73 97
244 73 530
245 73 348
246 73 270
247 73 562
248 73 822
249 72 260
250 72 656
251 72 831
252 72 516
253 72 580
254 72 692
255 72 245
256 72 946
257 72 250
258 72 757
259 72 731
260 72 33
261 72 515
262 72 925
263 72 808
264 72 574
265 72 867
266 71 759
267 71 12
268 71 781
269 71 696
270 71 361
271 71 131
272 71 612
273 71 949
274 71 908
275 71 593
276 71 685
277 71 690
278 71 349
279 71 740
280 71 394
281 70 845
282 70 985
283 70 557
284 70 433
285 70 822
286 70 940
287 70 708
288 70 27
289 70 887
290 70 809
291 70 412
292 70 959
293 70 263
294 70 51
295 70 621
296 70 303
297 70 316
298 69 287
299 69 600
300 69 854
301 69 748
302 69 494
303 69 816
304 69 858
305 69 682
306 69 600
307 69 625
308 69 46
309 69 100
310 69 57
311 69 607
312 69 721
313 68 605
314 68 71
315 68 261
316 68 752
317 68 412
318 68 757
319 68 172
320 68 612
321 68 767
322 68 911
323 68 490
324 68 208
325 68 365
326 68 444
327 68 226
328 68 853
329 68 692
330 68 494
331 68 8
332 68 880
333 68 676
334 67 953
335 67 648
336 67 608
337 67 6
338 67 678
339 67 753
340 67 208
341 67 563
342 67 986
343 67 64
344 67 588
345 67 563
346 67 624
347 67 453
348 66 18
349 66 626
350 66 620
351 66 400
352 66 224
353 66 549
354 66 445
355 66 792
356 66 298
357 66 991
358 66 649
359 66 868
360 65 436
361 65 385
362 65 956
363 65 681
364 65 499
365 65 946
366 65 500
367 65 646
368 65 245
369 65 719
370 65 847
371 65 835
372 65 102
373 65 336
374 65 349
375 65 888
376 65 926
377 65 498
378 65 713
379 65 349
380 65 808
381 65 505
382 64 77
383 64 262
384 64 426
385 64 454
386 64 810
387 64 697
388 64 454
389 64 702
390 64 451
391 64 999
392 64 958
393 64 239
394 63 547
395 63 981
396 63 976
397 63 661
398 63 513
399 63 324
400 63 495
401 63 134
402 63 465
403 63 734
404 63 437
405 63 401
406 63 213
407 63 162
408 62 236
409 62 77
410 62 669
411 62 38
412 62 445
413 62 669
414 62 510
415 62 703
416 62 947
417 62 907
418 62 472
419 62 700
420 62 825
421 62 270
422 62 268
423 61 21
424 61 185
425 61 431
426 61 521
427 61 373
428 61 421
429 61 587
430 61 430
431 61 343
432 61 996
433 61 978
434 61 992
435 61 220
436 61 219
437 61 506
438 61 835
439 61 655
440 61 255
441 61 164
442 61 108
443 61 262
444 61 42
445 61 427
446 60 287
447 60 299
448 60 914
449 60 806
450 60 519
451 60 977
452 60 839
453 60 934
454 60 200
455 60 551
456 60 198
457 60 34
458 60 524
459 60 496
460 60 781
461 59 370
462 59 661
463 59 584
464 59 421
465 59 403
466 59 891
467 59 408
468 59 531
469 59 614
470 59 131
471 59 12
472 59 690
473 59 230
474 59 994
475 59 811
476 58 645
477 58 673
478 58 11
479 58 51
480 58 785
481 58 816
482 58 742
483 58 865
484 58 332
485 58 671
486 58 898
487 58 43
488 58 482
489 58 36
490 58 448
491 58 341
492 58 952
493 58 475
494 58 991
495 58 198
496 58 521
497 57 386
498 57 746
499 57 777
500 57 507
501 57 299
502 57 1000
503 57 548
504 57 559
505 57 660
506 56 868
507 56 738
508 56 357
509 56 185
510 56 122
511 56 195
512 56 500
513 56 703
514 56 721
515 56 655
516 56 125
517 55 485
518 55 74
519 55 690
520 55 5
521 55 129
522 55 775
523 55 198
524 55 544
525 55 588
526 55 197
527 54 507
528 54 86
529 54 456
530 54 488
531 54 947
532 54 710
533 54 510
534 54 358
535 54 491
536 54 229
537 54 112
538 53 53
539 53 613
540 53 336
541 53 380
542 53 638
543 53 305
544 53 946
545 53 238
546 53 414
547 53 146
548 53 2
549 53 749
550 52 584
551 52 641
552 52 381
553 52 228
554 52 336
555 52 445
556 52 577
557 52 506
558 52 576
559 52 683
560 52 125
561 52 398
562 52 838
563 52 198
564 51 557
565 51 137
566 51 895
567 51 869
568 51 201
569 51 486
570 51 107
571 51 563
572 51 784
573 51 397
574 51 528
575 51 13
576 50 626
577 50 778
578 50 543
579 50 909
580 50 538
581 50 307
582 50 867
583 50 587
584 50 345
585 50 46
586 50 277
587 50 19
588 49 268
589 49 125
590 49 530
591 49 530
592 49 202
593 49 277
594 49 685
595 49 656
596 49 900
597 49 882
598 49 311
599 49 671
600 48 812
601 48 10
602 48 906
603 48 150
604 48 798
605 48 805
606 48 648
607 48 735
608 48 649
609 48 585
610 48 984
611 48 922
612 48 792
613 48 406
614 48 878
615 48 297
616 48 936
617 48 279
618 48 938
619 48 122
620 48 889
621 48 463
622 47 877
623 47 286
624 47 503
625 47 443
626 47 693
627 47 356
628 47 100
629 47 939
630 47 618
631 47 868
632 47 540
633 47 580
634 47 481
635 47 931
636 47 217
637 47 45
638 47 594
639 47 962
640 46 356
641 46 669
642 46 814
643 46 646
644 46 695
645 46 931
646 46 923
647 46 66
648 46 586
649 46 995
650 46 448
651 46 528
652 46 649
653 46 51
654 45 615
655 45 328
656 45 390
657 45 613
658 45 896
659 45 453
660 45 800
661 45 873
662 45 146
663 45 267
664 45 563
665 45 91
666 45 295
667 45 58
668 45 524
669 45 108
670 45 801
671 45 954
672 45 481
673 45 397
674 45 556
675 45 155
676 44 812
677 44 842
678 44 75
679 44 211
680 44 333
681 44 462
682 44 958
683 44 898
684 44 613
685 44 197
686 44 807
687 44 812
688 44 425
689 43 804
690 43 288
691 43 384
692 43 783
693 43 913
694 43 990
695 43 599
696 43 675
697 43 828
698 43 484
699 43 399
700 43 558
701 42 578
702 42 684
703 42 861
704 42 855
705 42 630
706 42 129
707 42 732
708 42 569
709 42 221
710 42 281
711 42 742
712 42 448
713 42 306
714 41 763
715 41 905
716 41 64
717 41 194
718 41 361
719 41 711
720 41 423
721 41 728
722 41 335
723 41 276
724 41 159
725 41 109
726 41 656
727 41 961
728 41 623
729 41 750
730 41 900
731 41 621
732 40 969
733 40 581
734 40 118
735 40 728
736 40 630
737 40 908
738 40 675
739 40 313
740 40 830
741 40 126
742 40 145
743 40 751
744 40 800
745 39 157
746 39 129
747 39 222
748 39 767
749 39 478
750 39 468
751 39 421
752 39 727
753 39 484
754 39 526
755 39 413
756 39 581
757 39 201
758 39 994
759 39 20
760 38 512
761 38 381
762 38 101
763 38 64
764 38 464
765 38 946
766 38 129
767 38 776
768 38 569
769 38 282
770 38 837
771 38 998
772 38 81
773 37 859
774 37 459
775 37 99
776 37 686
777 37 996
778 37 9
779 37 567
780 37 496
781 37 819
782 37 836
783 37 253
784 37 95
785 37 589
786 36 44
787 36 723
788 36 870
789 36 477
790 36 770
791 36 388
792 36 767
793 36 145
794 36 265
795 36 116
796 36 87
797 36 21
798 36 638
799 36 821
800 36 293
801 35 308
802 35 107
803 35 767
804 35 811
805 35 435
806 35 899
807 35 86
808 35 53
809 35 764
810 35 671
811 35 388
812 35 79
813 35 991
814 35 860
815 35 321
816 34 801
817 34 872
818 34 661
819 34 111
820 34 618
821 34 767
822 34 684
823 34 443
824 34 948
825 34 463
826 34 932
827 34 26
828 34 164
829 34 663
830 34 431
831 34 436
832 33 380
833 33 286
834 33 792
835 33 975
836 33 382
837 33 944
838 33 897
839 33 199
840 33 828
841 33 31
842 33 871
843 33 342
844 33 547
845 33 301
846 33 45
847 33 226
848 33 416
849 33 123
850 32 381
851 32 692
852 32 661
853 32 620
854 32 304
855 32 112
856 32 234
857 32 451
858 32 887
859 32 914
860 32 154
861 32 213
862 32 823
863 31 186
864 31 117
865 31 107
866 31 115
867 31 956
868 31 930
869 31 381
870 31 248
871 31 845
872 31 438
873 30 490
874 30 89
875 30 713
876 30 593
877 30 388
878 30 952
879 30 335
880 30 339
881 30 883
882 30 662
883 30 791
884 30 672
885 30 768
886 30 881
887 30 315
888 29 316
889 29 677
890 29 954
891 29 332
892 29 925
893 29 809
894 29 983
895 29 737
896 29 244
897 29 743
898 29 753
899 29 168
900 29 423
901 29 420
902 29 752
903 29 578
904 29 764
905 29 653
906 29 603
907 29 126
908 29 960
909 28 593
910 28 775
911 28 368
912 28 720
913 28 513
914 28 207
915 28 141
916 28 19
917 28 621
918 28 311
919 28 194
920 28 757
921 28 987
922 28 982
923 28 733
924 28 65
925 28 888
926 28 700
927 28 967
928 27 327
929 27 659
930 27 299
931 27 573
932 27 547
933 27 799
934 27 885
935 27 236
936 27 33
937 27 695
938 27 250
939 27 345
940 27 768
941 27 432
942 27 634
943 26 381
944 26 189
945 26 685
946 26 563
947 26 156
948 26 492
949 26 5
950 26 109
951 26 813
952 26 116
953 26 737
954 26 518
955 26 71
956 26 67
957 26 42
958 26 529
959 26 920
960 26 939
961 26 40
962 26 213
963 25 277
964 25 303
965 25 482
966 25 429
967 25 512
968 25 975
969 25 410
970 25 186
971 25 232
972 25 264
973 25 793
974 25 359
975 25 785
976 25 287
977 25 405
978 25 687
979 25 220
980 25 405
981 25 83
982 25 904
983 25 885
984 24 319
985 24 842
986 24 464
987 24 343
988 24 163
989 24 879
990 24 585
991 24 183
992 24 354
993 24 137
994 24 493
995 24 966
996 24 67
997 24 559
998 24 582
999 24 365
1000 24 906
