results/OOEBPP/BPP_1000_120_0.2_0.7_7.txt.ins.log
282,281.986,90.0052,OPT,11792,0,0,AI,0,0.0815603,2.90426,0.685205,88.2109,0,2,0,87,87
